This is Ipopt version 3.14.14, running with linear solver MUMPS 5.6.2.

Number of nonzeros in equality constraint Jacobian...:   299894
Number of nonzeros in inequality constraint Jacobian.:        0
Number of nonzeros in Lagrangian Hessian.............:   235941

Total number of variables............................:    87978
                     variables with only lower bounds:        0
                variables with lower and upper bounds:        0
                     variables with only upper bounds:        0
Total number of equality constraints.................:    79978
Total number of inequality constraints...............:        0
        inequality constraints with only lower bounds:        0
   inequality constraints with lower and upper bounds:        0
        inequality constraints with only upper bounds:        0

iter    objective    inf_pr   inf_du lg(mu)  ||d||  lg(rg) alpha_du alpha_pr  ls
   0  2.3000000e+02 9.80e+00 6.00e-02  -1.0 0.00e+00    -  0.00e+00 0.00e+00   0
   1  7.1866919e+02 1.06e-11 3.40e+02  -1.0 1.02e+01    -  1.00e+00 1.00e+00h  1
   2  7.1858548e+02 1.39e-09 5.51e-02  -1.0 5.51e-04   2.0 1.00e+00 1.00e+00f  1
   3  5.6870226e+02 4.02e-02 8.87e-03  -2.5 2.00e+00    -  1.00e+00 1.00e+00f  1
   4  5.6875833e+02 4.68e-04 3.14e-05  -2.5 1.83e-01    -  1.00e+00 1.00e+00h  1
   5  5.6875836e+02 1.99e-09 1.16e-10  -5.7 4.61e-04    -  1.00e+00 1.00e+00h  1

Number of Iterations....: 5

                                   (scaled)                 (unscaled)
Objective...............:   5.6875836054910599e+02    5.6875836054910599e+02
Dual infeasibility......:   1.1640745262658054e-10    1.1640745262658054e-10
Constraint violation....:   1.9870869880089792e-09    1.9870869880089792e-09
Variable bound violation:   0.0000000000000000e+00    0.0000000000000000e+00
Complementarity.........:   0.0000000000000000e+00    0.0000000000000000e+00
Overall NLP error.......:   1.9870869880089792e-09    1.9870869880089792e-09


Number of objective function evaluations             = 6
Number of objective gradient evaluations             = 6
Number of equality constraint evaluations            = 6
Number of inequality constraint evaluations          = 0
Number of equality constraint Jacobian evaluations   = 6
Number of inequality constraint Jacobian evaluations = 0
Number of Lagrangian Hessian evaluations             = 5
Total seconds in IPOPT (w/o function evaluations)    =      2.797
Total seconds in NLP function evaluations            =      1.299


Timing Statistics:

OverallAlgorithm....................:     16.912 (sys:     14.894 wall:      4.096)
 PrintProblemStatistics.............:      0.009 (sys:      0.037 wall:      0.004)
 InitializeIterates.................:      0.463 (sys:      0.087 wall:      0.422)
 UpdateHessian......................:      4.891 (sys:      4.897 wall:      0.702)
 OutputIteration....................:      0.006 (sys:      0.003 wall:      0.001)
 UpdateBarrierParameter.............:      0.000 (sys:      0.000 wall:      0.000)
 ComputeSearchDirection.............:      6.591 (sys:      4.893 wall:      2.340)
 ComputeAcceptableTrialPoint........:      3.604 (sys:      3.642 wall:      0.455)
 AcceptTrialPoint...................:      0.003 (sys:      0.002 wall:      0.000)
 CheckConvergence...................:      1.342 (sys:      1.331 wall:      0.172)
PDSystemSolverTotal.................:      6.588 (sys:      4.890 wall:      2.339)
 PDSystemSolverSolveOnce............:      6.199 (sys:      4.515 wall:      2.282)
 ComputeResiduals...................:      0.332 (sys:      0.301 wall:      0.048)
 StdAugSystemSolverMultiSolve.......:      6.517 (sys:      4.518 wall:      2.629)
 LinearSystemScaling................:      0.000 (sys:      0.000 wall:      0.000)
 LinearSystemSymbolicFactorization..:      0.225 (sys:      0.063 wall:      0.163)
 LinearSystemFactorization..........:      0.000 (sys:      0.000 wall:      0.000)
 LinearSystemBackSolve..............:      4.430 (sys:      3.887 wall:      0.720)
 LinearSystemStructureConverter.....:      0.000 (sys:      0.000 wall:      0.000)
  LinearSystemStructureConverterInit:      0.000 (sys:      0.000 wall:      0.000)
QualityFunctionSearch...............:      0.000 (sys:      0.000 wall:      0.000)
TryCorrector........................:      0.000 (sys:      0.000 wall:      0.000)
Task1...............................:      0.000 (sys:      0.000 wall:      0.000)
Task2...............................:      0.000 (sys:      0.000 wall:      0.000)
Task3...............................:      0.000 (sys:      0.000 wall:      0.000)
Task4...............................:      0.000 (sys:      0.000 wall:      0.000)
Task5...............................:      0.000 (sys:      0.000 wall:      0.000)
Task6...............................:      0.000 (sys:      0.000 wall:      0.000)
Function Evaluations................:      9.522 (sys:      9.557 wall:      1.299)
 Objective function.................:      0.068 (sys:      0.032 wall:      0.006)
 Objective function gradient........:      0.042 (sys:      0.027 wall:      0.005)
 Equality constraints...............:      3.510 (sys:      3.616 wall:      0.449)
 Inequality constraints.............:      0.000 (sys:      0.000 wall:      0.000)
 Equality constraint Jacobian.......:      1.013 (sys:      0.987 wall:      0.138)
 Inequality constraint Jacobian.....:      0.000 (sys:      0.000 wall:      0.000)
 Lagrangian Hessian.................:      4.888 (sys:      4.895 wall:      0.701)

EXIT: Optimal Solution Found.
